p cnf 116 953
c 14 15 15 15 16 14 15 16 16 15 15 15 15 15 14 14 15 15 15 15 15 16 15 15 15 18 15 11 15 14 15 15 15 15 15 16 16 18 15 14 15 14 13 15 16 11 14 16 15 14 16 15 16 15 15 12 15 15 12 15 14 15 13 20 

-1 -2 0
2 3 0
2 4 0
-5 -2 0
-2 -5 0
-6 -2 0
-7 -3 0
-8 -3 0
-3 -9 0
-3 -7 0
-3 -8 0
-10 -4 0
-11 -4 0
-4 -12 0
-13 -14 15 0
-13 -16 9 0
-13 -17 3 0
13 -9 0
-15 -18 0
-9 -12 0
-12 -9 0
-15 -9 0
-15 -7 0
-15 -3 0
-9 -15 0
-9 -3 0
-7 -15 0
-8 -9 0
-3 -15 0
19 20 0
19 21 22 6 0
-19 -22 0
-19 -6 0
-21 -19 0
-21 -22 0
-21 -6 0
-22 -19 0
-22 -21 0
-22 -6 0
-6 -19 0
-6 -21 0
-6 -22 0
-23 -19 0
-24 -20 0
-25 26 0
27 -28 26 0
-23 -21 7 0
-29 26 0
21 26 0
-19 -21 0
-30 -7 0
-31 -7 0
-9 -7 0
-7 -9 0
-8 -7 0
-7 -26 0
-32 -26 0
-31 -26 0
-33 -26 0
-34 -6 0
-34 -22 35 0
34 -36 0
34 -37 0
34 -31 0
34 -35 0
34 38 0
-39 -34 0
-34 -1 0
-29 -34 0
-1 -34 0
-34 -5 0
-40 -35 0
-36 -35 0
-31 -35 0
-35 -31 0
-39 -5 0
-39 -6 0
39 -10 0
39 -12 0
39 -32 0
39 -11 0
23 39 34 29 1 0
-23 -39 0
-39 -29 0
-39 -1 0
-34 -39 0
-29 -39 0
-1 -39 0
-39 -41 0
-1 -41 0
-1 -19 24 0
-1 -6 42 0
1 -24 0
1 -18 0
1 -33 0
1 -42 0
-29 -1 0
-1 -29 0
-1 -22 0
-24 -8 0
-24 -18 0
-33 -24 0
-33 -42 0
-42 -24 0
-23 -41 0
-23 -5 0
-23 -6 0
-23 20 0
23 -15 0
23 -9 0
23 -7 0
23 -8 0
23 3 0
-23 -34 0
-23 -29 0
-23 -1 0
-39 -23 0
-34 -23 0
-29 -23 0
-1 -23 0
-43 44 0
-45 -44 0
-14 -46 0
-14 44 0
14 -44 46 0
14 -15 0
14 47 -48 0
17 49 -50 0
14 51 -18 0
-14 -16 0
-14 -17 0
-16 -14 0
-17 -14 0
-52 -14 0
-47 -53 0
-47 -49 0
-54 -55 0
-54 56 0
54 -56 55 0
54 -8 0
16 57 -12 0
16 58 -59 0
54 60 -40 0
-14 -54 0
-16 -54 0
-54 -14 0
-54 -16 0
-54 -17 0
-17 -54 0
-61 -54 0
-60 -56 0
-27 -26 0
-27 28 0
27 -7 0
62 14 16 27 54 17 0
-62 -27 0
-14 -27 0
-16 -27 0
-27 -62 0
-27 -14 0
-27 -16 0
-27 -54 0
-27 -17 0
-54 -27 0
-17 -27 0
-25 -27 0
-62 -20 0
-62 63 0
62 -63 20 0
62 64 -10 0
62 -36 0
62 -30 0
62 -24 0
-62 -14 0
-62 -16 0
-62 -54 0
-62 -17 0
-54 -62 0
-17 -62 0
-65 -62 0
-36 -20 0
-65 20 0
-61 55 0
65 63 -20 0
-65 -52 0
-65 -66 0
-65 -67 0
-67 -65 0
-1 55 0
22 55 0
-64 -63 0
-8 -55 0
-11 -55 0
-35 -55 0
-30 -20 0
-40 -55 0
25 28 -26 0
65 52 66 25 61 67 0
-65 -25 0
-52 -25 0
-52 -61 0
-66 -25 0
-66 -67 0
-25 -65 0
-25 -52 0
-25 -66 0
-25 -61 0
-25 -67 0
-61 -52 0
-61 -25 0
-67 -25 0
-52 46 0
-34 -41 0
-39 46 0
-41 46 0
41 -46 0
41 5 2 0
-41 -5 0
-41 -2 0
-5 -41 0
-2 -41 0
-15 -46 0
-37 -46 0
-48 -46 0
-18 -46 0
-66 68 0
66 69 -68 0
-52 -66 0
-66 -65 0
-66 -52 0
-61 -66 0
-67 -66 0
-34 68 0
-5 68 0
5 -68 0
-9 -68 0
-12 -68 0
-59 -68 0
-70 -68 0
-71 -16 12 0
-71 -17 4 0
-71 -67 -4 0
-71 44 0
71 -57 12 0
71 72 -4 0
-71 -14 0
39 4 0
-12 -59 0
-59 -12 0
-12 -4 0
-32 -12 0
-11 -12 0
-4 -10 0
-4 -32 0
-13 -61 0
-71 -25 53 0
71 -72 4 0
13 71 73 74 75 0
-13 -73 0
-71 -13 0
-71 -74 0
-71 -75 0
-73 -13 0
-73 -71 0
-73 -74 0
-73 -75 0
-74 -71 0
-75 -74 0
-72 -53 0
-76 -77 78 0
-79 56 0
76 -78 0
77 -78 0
77 -60 0
-77 -80 0
-77 -81 0
54 78 -11 0
-51 -78 0
-60 -78 0
-78 -57 0
-78 -53 0
-78 -72 0
-72 -78 0
-78 -56 0
-71 -65 64 0
-71 -67 72 0
71 53 -32 0
27 53 -32 0
17 72 -4 0
-71 -52 0
-82 -53 0
-64 -53 0
-64 -72 0
-57 -53 0
-53 -64 0
-53 -57 0
-53 -78 0
-53 -72 0
-72 -64 0
-71 -54 11 0
-23 -22 8 0
-39 -22 11 0
-11 -18 0
-18 -11 0
-8 -11 0
-11 -8 0
-11 -35 0
-35 -11 0
-40 -11 0
-15 -8 0
-10 -11 0
-12 -11 0
-11 -10 0
-11 -32 0
-71 -65 -10 0
-71 -61 78 0
71 -64 10 0
71 78 -11 0
-39 -19 10 0
-78 -60 0
-64 -78 0
-57 -78 0
-78 -64 0
-15 -10 0
-10 -15 0
-10 -24 0
-30 -10 0
-10 -12 0
-12 -10 0
-10 -20 0
-13 -54 8 0
-13 -67 -3 0
-13 -52 0
-13 -66 0
-13 -25 0
-13 63 0
13 3 0
13 -15 0
13 -7 0
13 -8 0
-13 -65 0
-13 -62 0
-8 -24 0
-9 -8 0
-8 -15 0
-13 -27 7 0
-71 -27 32 0
-39 -21 32 0
-34 -21 31 0
-48 -32 0
-7 -32 0
-32 -7 0
-32 -33 0
-31 -32 0
-33 -7 0
-33 -32 0
-7 -8 0
-10 -32 0
-32 -10 0
-32 -11 0
29 48 0
41 48 0
-32 -48 0
-15 -48 0
-37 -48 0
-48 -15 0
-48 -37 0
-48 -18 0
-18 -48 0
-30 -48 0
-48 -30 0
-48 -59 0
-59 -48 0
-40 -48 0
-50 -48 0
-74 -62 30 0
-29 -5 0
-29 -2 0
-29 -19 30 0
-29 -6 50 0
29 -30 0
29 -59 0
29 -40 0
29 -50 0
-34 -29 0
-29 -21 0
-7 -30 0
-36 -30 0
-30 -36 0
-24 -30 0
-30 -40 0
-30 -50 0
-59 -30 0
-74 -16 59 0
-74 -17 50 0
-74 28 0
74 -49 50 0
74 -30 0
74 49 -50 0
-13 -74 0
-74 -13 0
-53 -28 0
-59 -9 0
-48 -50 0
-59 -50 0
-50 -30 0
-50 -59 0
-50 -40 0
-74 -54 40 0
-74 -61 -40 0
-29 -22 40 0
-40 -33 0
-8 -40 0
-11 -40 0
-35 -40 0
-40 -8 0
-59 -40 0
-40 -59 0
-40 -50 0
-73 -14 37 0
-73 -17 38 0
-73 -25 -31 0
-73 -67 -38 0
-73 -65 0
-73 -67 83 0
73 -36 0
73 83 -38 0
-73 -66 0
-73 -16 0
-12 -37 0
-37 -12 0
-37 -15 0
-37 -18 0
-38 -37 0
-34 -19 36 0
2 38 0
-9 -36 0
-36 -9 0
-36 -10 0
-36 -24 0
-36 -37 0
-36 -38 0
-37 -38 0
-31 -38 0
-35 -38 0
-38 -36 0
-38 -31 0
-38 -35 0
-73 -62 36 0
-73 -27 31 0
73 -82 31 0
73 -84 35 0
27 82 -31 0
-31 -59 0
-59 -31 0
-7 -31 0
-32 -31 0
-36 -31 0
-37 -31 0
-37 -35 0
-31 -36 0
-31 -37 0
-35 -36 0
-73 -54 35 0
-73 -61 -35 0
73 -85 37 0
61 56 -55 0
-65 -61 0
-66 -61 0
-61 -65 0
-61 -67 0
-67 -61 0
-15 -37 0
-8 -35 0
-35 -8 0
-18 -37 0
-37 -36 0
-35 -37 0
-76 -81 72 0
-76 -86 -64 0
-76 -87 0
-76 -88 0
-76 -79 0
-76 -89 0
-76 90 0
76 64 0
76 -53 0
76 -72 0
81 -72 0
-91 -76 0
-92 -76 0
-93 -76 0
-76 -43 0
-71 -66 -12 0
-71 -25 -32 0
-71 -61 -11 0
-71 -66 57 0
71 -78 11 0
71 64 -10 0
71 57 -12 0
-71 -73 0
-57 -58 0
-58 -57 0
-64 -57 0
-57 -64 0
-57 -72 0
-72 -57 0
-4 -11 0
-92 -45 47 0
45 -90 44 0
43 90 -44 0
45 -47 0
45 -51 0
-43 -88 0
-87 -43 0
-89 -43 0
-45 -80 0
-45 -77 0
-45 -81 0
-80 -45 0
-81 -45 0
-43 -45 0
-58 -47 0
-91 -94 82 0
-94 -28 0
94 -53 0
-73 -52 -37 0
-73 -25 82 0
-73 -61 84 0
73 85 -37 0
73 82 -31 0
27 95 -33 0
-74 -73 0
-53 -82 0
-82 -95 0
-95 -82 0
-82 -83 0
-84 -82 0
-83 -82 0
-91 -89 -83 0
91 -96 85 0
91 97 -83 0
45 96 -85 0
81 97 -83 0
45 80 94 77 81 0
-91 -93 0
-45 -94 0
-80 -81 0
-77 -45 0
-81 -77 0
-96 -97 0
-98 -97 0
-97 -96 0
-97 -98 0
-83 -85 0
-91 -81 83 0
-91 -43 -85 0
-91 -79 -84 0
-91 -86 0
-91 -89 97 0
91 96 -85 0
91 -82 0
91 98 -84 0
86 43 87 88 79 89 0
-76 -91 0
-91 -92 0
-92 -91 0
-86 -43 0
-43 -89 0
-88 -43 0
-89 -88 0
-91 -87 0
-96 -98 0
-91 -45 85 0
91 -97 83 0
-73 -52 85 0
14 85 -37 0
-14 -62 0
-57 -85 0
-85 -57 0
-85 -47 0
-85 -51 0
-47 -85 0
-51 -85 0
-85 -82 0
-85 -83 0
-82 -85 0
-85 -44 0
-91 -77 84 0
-73 69 0
73 -83 38 0
73 84 -35 0
54 84 -35 0
-78 -84 0
-84 -78 0
-60 -84 0
-85 -84 0
-82 -84 0
-84 -85 0
-84 -83 0
-83 -84 0
-84 -56 0
-92 -77 60 0
-92 -81 49 0
-92 -89 -49 0
-92 -86 0
-92 -43 0
-92 -79 0
-92 99 0
92 49 0
92 -47 0
92 -58 0
92 -60 0
-76 -92 0
-92 -88 0
-92 -94 0
-49 -60 0
-74 -66 -59 0
-74 -67 -50 0
-74 -61 60 0
74 58 -59 0
74 60 -40 0
-74 -25 0
-74 -27 0
-60 -95 0
-95 -60 0
-84 -60 0
-47 -60 0
-60 -47 0
-60 -58 0
-60 -49 0
-76 -80 57 0
-87 69 0
-80 -69 0
-80 100 0
80 -100 69 0
76 -57 0
80 -57 0
-80 -94 0
-94 -80 0
-76 -45 0
-101 -57 0
-57 -69 0
-58 -69 0
-92 -80 58 0
80 -58 0
-80 -77 0
-87 -80 0
-74 -66 58 0
-74 -67 49 0
74 -58 59 0
-82 -58 0
-58 -82 0
-47 -58 0
-58 -60 0
-58 -49 0
-49 -58 0
-9 -59 0
-30 -59 0
-93 -94 95 0
-88 28 0
-94 99 0
94 -99 28 0
93 -102 95 0
88 99 -28 0
94 -82 0
94 102 -95 0
-88 -89 0
-94 -45 0
-94 -77 0
-94 -81 0
-77 -94 0
-88 -94 0
-82 -28 0
-95 -28 0
-86 63 0
86 -63 0
-86 -87 0
-86 -88 0
-86 -79 0
-86 -89 0
-43 -86 0
-87 -86 0
-88 -86 0
-79 -86 0
-89 -86 0
-103 100 0
-104 -100 0
104 100 0
-103 -104 0
-92 -87 0
-91 100 0
87 100 -69 0
-43 -87 0
-87 -88 0
-87 -79 0
-87 -89 0
-88 -87 0
-89 -87 0
-105 -100 0
-77 -56 0
-91 -79 98 0
-93 106 0
-77 106 0
77 -106 56 0
79 106 -56 0
77 98 -84 0
-43 -79 0
-88 -79 0
-79 -43 0
-79 -87 0
-79 -88 0
-79 -89 0
-89 -79 0
-79 -77 0
-98 -106 0
1 70 0
5 70 0
-35 -70 0
-70 -35 0
-9 -70 0
-12 -70 0
-59 -70 0
-70 -9 0
-70 -12 0
-70 -59 0
-24 -70 0
-18 -70 0
-70 -18 0
-70 -42 0
-33 -70 0
-16 -68 0
-16 69 0
16 -69 68 0
16 -9 0
17 83 -38 0
16 101 -70 0
17 107 -42 0
-16 -62 0
-16 -17 0
-17 -16 0
-66 -16 0
-67 -17 0
-57 -101 0
-101 -69 0
-75 -14 18 0
-75 -27 33 0
75 -51 18 0
-1 -21 33 0
-33 -40 0
-7 -33 0
-31 -33 0
-18 -15 0
-33 -31 0
-24 -33 0
-18 -33 0
-18 -42 0
-70 -33 0
-33 -18 0
-42 -18 0
-42 -33 0
-71 -62 10 0
-75 -62 24 0
71 -53 32 0
-13 -71 0
-75 -71 0
-10 -36 0
-10 -30 0
-30 -24 0
-24 -10 0
-24 -36 0
-12 -32 0
-32 -4 0
-24 -42 0
-18 -24 0
-70 -24 0
-76 -94 53 0
-75 -16 70 0
-75 -52 -18 0
-75 -66 -70 0
-75 -25 95 0
-75 56 0
75 -24 0
75 101 -70 0
75 95 -33 0
-75 -61 0
-75 -54 0
-53 -95 0
-95 -53 0
-51 -95 0
-101 -95 0
-95 -51 0
-75 -17 42 0
-75 -67 -42 0
-75 -65 0
-75 -66 101 0
-75 -67 107 0
75 -101 70 0
75 -107 42 0
75 107 -42 0
-13 -75 0
-75 -13 0
-75 -73 0
-101 -107 0
-95 -107 0
-107 -101 0
-42 -70 0
-75 -25 -33 0
-75 -52 51 0
75 -95 33 0
52 44 -46 0
75 51 -18 0
-52 -65 0
-52 -67 0
-67 -52 0
-78 -51 0
-47 -51 0
-51 -47 0
-51 -101 0
-51 -107 0
-47 -44 0
-51 -44 0
-74 -14 48 0
-74 -52 -48 0
-74 -65 0
-74 -52 47 0
74 -47 48 0
74 -60 40 0
74 47 -48 0
-74 -75 0
-53 -47 0
-49 -47 0
-48 -40 0
-40 -30 0
-93 -45 51 0
-93 -80 101 0
-93 -87 -101 0
-91 -88 0
91 -98 84 0
93 -105 101 0
80 105 -101 0
-81 -80 0
-91 -80 0
-84 -101 0
-101 -84 0
-58 -101 0
-101 -58 0
-101 -51 0
-95 -101 0
-93 -81 107 0
-93 -88 -95 0
-93 -86 0
93 -108 107 0
93 -51 0
93 102 -95 0
76 91 92 93 0
-76 -93 0
-92 -93 0
-93 -91 0
-93 -92 0
-93 -79 0
-93 -77 0
-107 -51 0
-107 -95 0
-109 -110 108 0
109 -108 0
110 -108 0
-93 -43 0
-93 -89 108 0
93 108 -107 0
81 108 -107 0
-81 -94 0
-89 -81 0
-105 -108 0
-102 -108 0
-108 -105 0
-109 -104 105 0
-109 -111 -102 0
-109 -112 0
109 102 0
109 -105 0
104 -105 0
-93 -89 -107 0
-93 -87 105 0
-93 -88 102 0
93 105 -101 0
-105 -98 0
-105 -102 0
-102 -105 0
-108 -102 0
-102 -99 0
-113 106 0
-114 -106 0
114 106 0
114 -98 0
110 -97 0
104 114 110 0
-104 -114 0
-104 -110 0
-114 -104 0
-114 -110 0
-110 -104 0
-110 -114 0
-109 -114 0
-113 -114 0
-115 -114 98 0
-115 -110 97 0
-115 -112 -96 0
-115 -113 0
-115 -116 0
115 96 0
115 -98 0
115 -97 0
115 109 0
-115 -109 0
-109 -115 0
-115 -103 0
-109 -113 0
-115 -104 0
-98 -105 0
-112 90 0
112 -90 0
-112 -103 0
-112 -111 0
-112 -113 0
-112 -116 0
-103 -112 0
-111 -112 0
-116 -112 0
-91 -43 96 0
-45 90 0
-98 -96 0
-96 -90 0
-111 99 0
-115 -111 0
-109 -103 0
-109 -116 0
111 -99 0
112 103 111 113 116 0
-103 -111 0
-103 -113 0
-103 -116 0
-111 -103 0
-111 -113 0
-111 -116 0
-113 -112 0
-113 -103 0
-113 -111 0
-113 -116 0
-116 -103 0
-116 -111 0
-116 -113 0
-116 -110 0
